<?xml version = "1.0" standalone="yes"?>
<!-- This file has been generated by DOcplex version 2.23.222  -->
<CPLEXSolution version="1.0">
 <header
   problemName="CVRP"
   objectiveValue="20752.5"
  />
 <variables>
  <variable name="x_0_3" index="2" value="1.00000"/>
  <variable name="x_0_6" index="5" value="1.00000"/>
  <variable name="x_0_7" index="6" value="1.00000"/>
  <variable name="x_0_9" index="8" value="1.00000"/>
  <variable name="x_0_12" index="11" value="1.00000"/>
  <variable name="x_0_18" index="17" value="1.00000"/>
  <variable name="x_0_20" index="19" value="1.00000"/>
  <variable name="x_0_22" index="21" value="1.00000"/>
  <variable name="x_0_23" index="22" value="1.00000"/>
  <variable name="x_0_25" index="24" value="1.00000"/>
  <variable name="x_0_26" index="25" value="1.00000"/>
  <variable name="x_0_27" index="26" value="1.00000"/>
  <variable name="x_0_28" index="27" value="1.00000"/>
  <variable name="x_0_29" index="28" value="1.00000"/>
  <variable name="x_1_0" index="29" value="1.00000"/>
  <variable name="x_2_1" index="59" value="1.00000"/>
  <variable name="x_3_11" index="97" value="1.00000"/>
  <variable name="x_4_14" index="129" value="1.00000"/>
  <variable name="x_5_0" index="145" value="1.00000"/>
  <variable name="x_6_8" index="181" value="1.00000"/>
  <variable name="x_7_0" index="203" value="1.00000"/>
  <variable name="x_8_17" index="248" value="1.00000"/>
  <variable name="x_9_0" index="261" value="1.00000"/>
  <variable name="x_10_0" index="290" value="1.00000"/>
  <variable name="x_11_21" index="339" value="1.00000"/>
  <variable name="x_12_0" index="348" value="1.00000"/>
  <variable name="x_13_0" index="377" value="1.00000"/>
  <variable name="x_14_19" index="424" value="1.00000"/>
  <variable name="x_15_0" index="435" value="1.00000"/>
  <variable name="x_16_15" index="479" value="1.00000"/>
  <variable name="x_17_0" index="493" value="1.00000"/>
  <variable name="x_18_16" index="538" value="1.00000"/>
  <variable name="x_19_24" index="574" value="1.00000"/>
  <variable name="x_20_10" index="590" value="1.00000"/>
  <variable name="x_21_0" index="609" value="1.00000"/>
  <variable name="x_22_2" index="640" value="1.00000"/>
  <variable name="x_23_13" index="680" value="1.00000"/>
  <variable name="x_24_0" index="696" value="1.00000"/>
  <variable name="x_25_5" index="730" value="1.00000"/>
  <variable name="x_26_0" index="754" value="1.00000"/>
  <variable name="x_27_0" index="783" value="1.00000"/>
  <variable name="x_28_4" index="816" value="1.00000"/>
  <variable name="x_29_0" index="841" value="1.00000"/>
  <variable name="u_1" index="870" value="61.00000"/>
  <variable name="u_2" index="871" value="43.00000"/>
  <variable name="u_3" index="872" value="6.00000"/>
  <variable name="u_4" index="873" value="26.00000"/>
  <variable name="u_5" index="874" value="61.00000"/>
  <variable name="u_6" index="875" value="14.00000"/>
  <variable name="u_7" index="876" value="60.00000"/>
  <variable name="u_8" index="877" value="49.00000"/>
  <variable name="u_9" index="878" value="61.00000"/>
  <variable name="u_10" index="879" value="61.00000"/>
  <variable name="u_11" index="880" value="39.00000"/>
  <variable name="u_12" index="881" value="60.00000"/>
  <variable name="u_13" index="882" value="61.00000"/>
  <variable name="u_14" index="883" value="47.00000"/>
  <variable name="u_15" index="884" value="61.00000"/>
  <variable name="u_16" index="885" value="10.00000"/>
  <variable name="u_17" index="886" value="61.00000"/>
  <variable name="u_18" index="887" value="8.00000"/>
  <variable name="u_19" index="888" value="59.00000"/>
  <variable name="u_20" index="889" value="48.00000"/>
  <variable name="u_21" index="890" value="61.00000"/>
  <variable name="u_22" index="891" value="5.00000"/>
  <variable name="u_23" index="892" value="16.00000"/>
  <variable name="u_24" index="893" value="61.00000"/>
  <variable name="u_25" index="894" value="22.00000"/>
  <variable name="u_26" index="895" value="55.00000"/>
  <variable name="u_27" index="896" value="51.00000"/>
  <variable name="u_28" index="897" value="9.00000"/>
  <variable name="u_29" index="898" value="61.00000"/>
 </variables>
</CPLEXSolution>
